%chk=gauss.chk
%nprocshared=4
%mem=4GB
# b3lyp/6-31G(d,p) freq

Title

0 2
O -1.13874643890475 -0.0777748609524728 0.0351333391725893 
H -1.32514886027637 0.864566164552044 0.139315575163348 
N 1.21669585108951 0.0151663082231051 -0.0899842866255306 
H 1.36993944394382 -0.66086030860968 0.668109100277249 
H -0.278648520569895 -0.105218350809433 -0.466302191071972 
H 1.4013920250901 0.925129976814618 0.351559119689936 
 
