%chk=gauss.chk
%nprocshared=4
%mem=4GB
# b3lyp/6-31G(d,p) freq

Title

0 2
O -1.16489406575575 -0.0777751329495788 0.0424149658651173 
H -1.31553199512775 0.874308582294759 0.190933651852527 
N 1.21807011382162 0.0130103412074513 -0.0913001800487194 
H 1.27352348676211 -0.664680645549338 0.663450361363138 
H 0.299443914313489 -0.0991951140709897 -0.566842672680565 
H 1.30598594977037 0.943144731443462 0.307859047034375 
 
