%chk=gauss.chk
%nprocshared=4
%mem=4GB
# b3lyp/6-31G(d,p) freq

Title

0 2
O -1.12940258688243 -0.0769743475398708 0.0327642774001116 
H -1.31772459872481 0.867503722713148 0.167555287334599 
N 1.18488257743855 0.012268658863836 -0.0918717316951103 
H 1.35075758889231 -0.664112388560499 0.655581321042016 
H 0.066516498561003 -0.0835903479947314 -0.384695752396718 
H 1.36171559027725 0.931372723155251 0.318064298016028 
 
