%chk=gauss.chk
%nprocshared=4
%mem=4GB
# b3lyp/6-31G(d,p) freq

Title

0 2
O -1.19145253523933 -0.0791284000451555 0.0489121710547612 
H -1.32087546294321 0.872126678661682 0.224020545072966 
N 1.24984817072666 0.0129781446877613 -0.0917294470455765 
H 1.16627957879617 -0.648300895158501 0.674181440960159 
H 0.42695731279366 -0.10058857376616 -0.693542258465513 
H 1.27102665387283 0.952265032536935 0.293589685675654 
 
