%chk=gauss.chk
%nprocshared=4
%mem=4GB
# b3lyp/6-31G(d,p) freq

Title

0 2
O -1.1879463126229 -0.0789363796135199 0.0442374336307164 
H -1.38057902350272 0.867376720173388 0.0692810104699114 
N 1.28211109157787 0.0213522061102325 -0.091873237733561 
H 1.37819080953557 -0.679655276882678 0.654992934150625 
H -0.411971275573896 -0.140462445139789 -0.550886719181362 
H 1.45382896600052 0.908843594457595 0.401051544287606 
 
